10 -459986
15 -456184
20 -449737
25 -449737
30 -449737
35 -449737
40 -449737
45 -449737
50 -449737
55 -449737
60 -449737
65 -449737
70 -449737
75 -443098
80 -443098
85 -443098
90 -443098
95 -443098
100 -443098
105 -443098
110 -443098
115 -443098
120 -443098
125 -443098
130 -443098
135 -443098
140 -443098
145 -443098
150 -443098
155 -443098
160 -443098
165 -443098
170 -443098
175 -443098
180 -443098
185 -443098
190 -443098
195 -443098
200 -443098
205 -443098
210 -443098
215 -443098
220 -443098
225 -443098
230 -443098
235 -443098
240 -443098
245 -443098
250 -443098
255 -443098
260 -443098
265 -443098
270 -443098
275 -443098
280 -443098
285 -443098
290 -443098
295 -443098
300 -443098
305 -443098
310 -443098
315 -443098
320 -443098
325 -443098
330 -443098
335 -443098
340 -443098
345 -443098
350 -443098
355 -443098
360 -443098
365 -443098
370 -443098
375 -443098
380 -443098
385 -443098
390 -443098
395 -443098
400 -443098
405 -443098
410 -440258
415 -440258
420 -440258
425 -440258
430 -440258
435 -440258
440 -440258
445 -440258
450 -440258
455 -440258
460 -440258
465 -440258
470 -440258
475 -440258
480 -440258
485 -440258
490 -440258
495 -440258
500 -440258
505 -440258
510 -440258
515 -440258
520 -440258
525 -440258
530 -440258
535 -440258
540 -440258
545 -440258
550 -440258
555 -440258
560 -440258
565 -440258
570 -440258
575 -440258
580 -440258
585 -440258
590 -440258
595 -440258
600 -440258
605 -440258
610 -440258
615 -440258
620 -440258
625 -440258
630 -440258
635 -440258
640 -440258
645 -434868
650 -434868
655 -434868
660 -434868
665 -434868
670 -434868
675 -434868
680 -434868
685 -434868
690 -434868
695 -434868
700 -434868
705 -434868
710 -434868
715 -434868
720 -434868
725 -434868
730 -434868
735 -434868
740 -434868
745 -434868
750 -434868
755 -434868
760 -434868
765 -434868
770 -434868
775 -434868
780 -434868
785 -434868
790 -434868
795 -434868
800 -434868
805 -434868
810 -434868
815 -434868
820 -434868
825 -434868
830 -434868
835 -434868
840 -434868
845 -434868
